results/x-long/X-n129-k18.vrp_seed-13.out
28954	1152
