results/x-long/X-n129-k18.vrp_seed-13.vrp.sol
Route #1: 90 44 1 23 59 18 64
Route #2: 91 75 103 89 66 15
Route #3: 125 31 69 120 51 109 83
Route #4: 60 77 35 57 13 56 62
Route #5: 65 105 104 10 79 76 11 17 110
Route #6: 82 124 7 54 6 9
Route #7: 119 80 68 98 4 94 87 63 20
Route #8: 38 118 28 127 47
Route #9: 53 123 5 122 115 117 70
Route #10: 101 85 61 41 55 40 58 29 22
Route #11: 24 97 8 37 12 16 42 99 14 74
Route #12: 100 49 92 116 95 96 73 114 32
Route #13: 67 30 43 84 25 39 93
Route #14: 86 88 113 27 52 50 78
Route #15: 102 112 72 108 71 126 26
Route #16: 3
Route #17: 19 45 48 2 34 21 33 46
Route #18: 121 111 81 36 107 128 106
Cost 28954.000000